NAME 
ROWS
 N  OBJ
 L  R0      
 L  R1      
 E  R2      
 E  R3      
 E  R4      
 E  R5      
 E  R6      
 E  R7      
 E  R8      
 E  R9      
 E  R10     
 E  R11     
 E  R12     
 E  R13     
 E  R14     
 E  R15     
 E  R16     
 E  R17     
 E  R18     
 E  R19     
 E  R20     
 E  R21     
 E  R22     
 E  R23     
 E  R24     
 E  R25     
 E  R26     
COLUMNS
    MARKER    'MARKER'                 'INTORG'
    I0(10)    OBJ       -108
    I0(10)    R0        169
    I0(10)    R1        84
    I0(10)    R2        1
    I0(10)    R3        -1
    I0(10)    R5        14
    I0(10)    R6        9
    I0(10)    R7        15
    I0(10)    R8        2
    I0(10)    R9        17
    I0(10)    R26       1
    I1(10)    OBJ       190
    I1(10)    R0        -14
    I1(10)    R1        -8
    I1(10)    R2        19
    I1(10)    R3        14
    I1(10)    R4        3
    I1(10)    R5        13
    I1(10)    R7        11
    I1(10)    R8        14
    I1(10)    R11       12
    I1(10)    R26       1
    I2(13)    OBJ       111
    I2(13)    R0        45
    I2(13)    R1        80
    I2(13)    R2        13
    I2(13)    R3        -1
    I2(13)    R4        15
    I2(13)    R5        17
    I2(13)    R6        10
    I2(13)    R7        12
    I2(13)    R8        9
    I2(13)    R9        16
    I2(13)    R10       15
    I2(13)    R11       -1
    I2(13)    R26       1
    I3(12)    OBJ       131
    I3(12)    R0        17
    I3(12)    R1        136
    I3(12)    R2        6
    I3(12)    R3        11
    I3(12)    R4        7
    I3(12)    R5        16
    I3(12)    R6        14
    I3(12)    R7        9
    I3(12)    R8        9
    I3(12)    R10       19
    I3(12)    R11       7
    I3(12)    R26       1
    I4(12)    OBJ       9
    I4(12)    R0        36
    I4(12)    R1        19
    I4(12)    R3        1
    I4(12)    R4        15
    I4(12)    R5        9
    I4(12)    R6        17
    I4(12)    R7        11
    I4(12)    R8        17
    I4(12)    R9        5
    I4(12)    R10       18
    I4(12)    R11       19
    I4(12)    R26       1
    I5(9)     OBJ       -17
    I5(9)     R0        -181
    I5(9)     R1        -26
    I5(9)     R2        6
    I5(9)     R3        5
    I5(9)     R6        9
    I5(9)     R8        7
    I5(9)     R10       9
    I5(9)     R11       17
    I5(9)     R26       1
    I6(11)    OBJ       6
    I6(11)    R0        104
    I6(11)    R1        -117
    I6(11)    R2        5
    I6(11)    R3        19
    I6(11)    R5        17
    I6(11)    R6        3
    I6(11)    R7        11
    I6(11)    R8        8
    I6(11)    R9        19
    I6(11)    R10       17
    I6(11)    R26       1
    I7(11)    OBJ       18
    I7(11)    R0        -58
    I7(11)    R1        -26
    I7(11)    R2        7
    I7(11)    R3        18
    I7(11)    R4        14
    I7(11)    R5        18
    I7(11)    R6        2
    I7(11)    R7        4
    I7(11)    R9        5
    I7(11)    R10       11
    I7(11)    R26       1
    I8(11)    OBJ       171
    I8(11)    R0        -17
    I8(11)    R1        -178
    I8(11)    R2        1
    I8(11)    R3        14
    I8(11)    R4        1
    I8(11)    R5        17
    I8(11)    R6        16
    I8(11)    R7        11
    I8(11)    R9        15
    I8(11)    R11       14
    I8(11)    R26       1
    I9(10)    OBJ       119
    I9(10)    R0        -38
    I9(10)    R1        -165
    I9(10)    R2        16
    I9(10)    R3        10
    I9(10)    R7        10
    I9(10)    R8        7
    I9(10)    R9        18
    I9(10)    R10       3
    I9(10)    R11       8
    I9(10)    R26       1
    MARKER    'MARKER'                 'INTEND'
    C10(19)   OBJ       -2
    C10(19)   R0        6
    C10(19)   R2        14
    C10(19)   R3        8
    C10(19)   R4        18
    C10(19)   R5        15
    C10(19)   R6        -1
    C10(19)   R7        5
    C10(19)   R8        3
    C10(19)   R10       11
    C10(19)   R11       15
    C10(19)   R13       2
    C10(19)   R15       17
    C10(19)   R17       7
    C10(19)   R19       -1
    C10(19)   R21       18
    C10(19)   R22       -1
    C10(19)   R23       14
    C10(19)   R24       10
    C10(19)   R25       15
    C11(17)   OBJ       -2
    C11(17)   R0        8
    C11(17)   R1        7
    C11(17)   R3        16
    C11(17)   R4        7
    C11(17)   R6        6
    C11(17)   R8        12
    C11(17)   R9        10
    C11(17)   R10       2
    C11(17)   R13       19
    C11(17)   R14       8
    C11(17)   R16       5
    C11(17)   R17       15
    C11(17)   R18       6
    C11(17)   R19       8
    C11(17)   R21       13
    C11(17)   R24       12
    C11(17)   R25       9
    C12(18)   OBJ       3
    C12(18)   R0        2
    C12(18)   R1        -2
    C12(18)   R2        11
    C12(18)   R3        14
    C12(18)   R5        12
    C12(18)   R6        11
    C12(18)   R7        5
    C12(18)   R9        9
    C12(18)   R10       11
    C12(18)   R12       13
    C12(18)   R13       9
    C12(18)   R14       7
    C12(18)   R15       15
    C12(18)   R17       13
    C12(18)   R18       9
    C12(18)   R19       8
    C12(18)   R22       10
    C12(18)   R24       6
    C13(23)   OBJ       -1
    C13(23)   R0        1
    C13(23)   R1        4
    C13(23)   R2        3
    C13(23)   R3        5
    C13(23)   R4        6
    C13(23)   R5        5
    C13(23)   R6        13
    C13(23)   R7        18
    C13(23)   R8        18
    C13(23)   R9        -1
    C13(23)   R10       7
    C13(23)   R12       15
    C13(23)   R13       9
    C13(23)   R14       12
    C13(23)   R15       16
    C13(23)   R16       14
    C13(23)   R17       5
    C13(23)   R18       18
    C13(23)   R19       3
    C13(23)   R20       11
    C13(23)   R21       4
    C13(23)   R22       16
    C13(23)   R25       10
    C14(22)   OBJ       -7
    C14(22)   R0        2
    C14(22)   R1        7
    C14(22)   R2        13
    C14(22)   R3        3
    C14(22)   R4        5
    C14(22)   R5        2
    C14(22)   R6        16
    C14(22)   R7        1
    C14(22)   R8        19
    C14(22)   R9        5
    C14(22)   R10       17
    C14(22)   R11       5
    C14(22)   R12       10
    C14(22)   R15       9
    C14(22)   R17       13
    C14(22)   R18       11
    C14(22)   R19       8
    C14(22)   R20       10
    C14(22)   R21       18
    C14(22)   R22       2
    C14(22)   R24       14
    C14(22)   R25       7
    C15(24)   OBJ       4
    C15(24)   R0        7
    C15(24)   R1        -2
    C15(24)   R2        13
    C15(24)   R3        10
    C15(24)   R4        6
    C15(24)   R5        7
    C15(24)   R6        17
    C15(24)   R7        -1
    C15(24)   R8        2
    C15(24)   R9        7
    C15(24)   R10       8
    C15(24)   R11       9
    C15(24)   R13       1
    C15(24)   R14       4
    C15(24)   R15       12
    C15(24)   R16       17
    C15(24)   R17       14
    C15(24)   R18       17
    C15(24)   R19       8
    C15(24)   R20       4
    C15(24)   R21       19
    C15(24)   R23       1
    C15(24)   R24       -1
    C15(24)   R25       3
    C16(20)   OBJ       -8
    C16(20)   R0        -5
    C16(20)   R1        -2
    C16(20)   R2        6
    C16(20)   R4        11
    C16(20)   R5        16
    C16(20)   R8        6
    C16(20)   R9        9
    C16(20)   R10       11
    C16(20)   R11       2
    C16(20)   R12       4
    C16(20)   R13       2
    C16(20)   R16       2
    C16(20)   R17       8
    C16(20)   R18       -1
    C16(20)   R19       8
    C16(20)   R20       8
    C16(20)   R21       5
    C16(20)   R22       12
    C16(20)   R24       17
    C16(20)   R25       13
    C17(21)   OBJ       -9
    C17(21)   R0        6
    C17(21)   R1        -6
    C17(21)   R3        7
    C17(21)   R4        12
    C17(21)   R5        14
    C17(21)   R6        9
    C17(21)   R7        3
    C17(21)   R8        15
    C17(21)   R9        9
    C17(21)   R10       2
    C17(21)   R11       14
    C17(21)   R12       19
    C17(21)   R13       14
    C17(21)   R14       10
    C17(21)   R16       5
    C17(21)   R17       10
    C17(21)   R18       16
    C17(21)   R19       7
    C17(21)   R20       6
    C17(21)   R23       14
    C17(21)   R24       2
    C18(22)   R0        -2
    C18(22)   R1        1
    C18(22)   R2        5
    C18(22)   R4        4
    C18(22)   R5        1
    C18(22)   R6        5
    C18(22)   R7        16
    C18(22)   R9        11
    C18(22)   R10       15
    C18(22)   R11       17
    C18(22)   R12       2
    C18(22)   R13       7
    C18(22)   R14       7
    C18(22)   R16       17
    C18(22)   R17       6
    C18(22)   R18       15
    C18(22)   R19       11
    C18(22)   R20       13
    C18(22)   R22       19
    C18(22)   R23       15
    C18(22)   R24       10
    C18(22)   R25       15
    C19(21)   OBJ       -2
    C19(21)   R0        6
    C19(21)   R1        3
    C19(21)   R5        1
    C19(21)   R6        15
    C19(21)   R7        18
    C19(21)   R9        4
    C19(21)   R10       3
    C19(21)   R11       1
    C19(21)   R12       5
    C19(21)   R13       12
    C19(21)   R14       -1
    C19(21)   R15       6
    C19(21)   R16       3
    C19(21)   R17       19
    C19(21)   R18       11
    C19(21)   R19       3
    C19(21)   R20       19
    C19(21)   R21       7
    C19(21)   R22       2
    C19(21)   R24       19
    C19(21)   R25       19
    C20(22)   OBJ       4
    C20(22)   R0        -6
    C20(22)   R1        7
    C20(22)   R2        18
    C20(22)   R3        16
    C20(22)   R4        5
    C20(22)   R5        19
    C20(22)   R7        12
    C20(22)   R8        1
    C20(22)   R9        14
    C20(22)   R10       19
    C20(22)   R11       1
    C20(22)   R12       2
    C20(22)   R13       15
    C20(22)   R14       4
    C20(22)   R15       3
    C20(22)   R16       5
    C20(22)   R17       4
    C20(22)   R18       5
    C20(22)   R20       19
    C20(22)   R23       4
    C20(22)   R24       15
    C20(22)   R25       5
    C21(17)   OBJ       7
    C21(17)   R0        6
    C21(17)   R1        2
    C21(17)   R3        19
    C21(17)   R4        19
    C21(17)   R5        1
    C21(17)   R6        2
    C21(17)   R7        11
    C21(17)   R8        16
    C21(17)   R12       17
    C21(17)   R13       12
    C21(17)   R15       6
    C21(17)   R16       12
    C21(17)   R18       12
    C21(17)   R20       9
    C21(17)   R21       10
    C21(17)   R22       11
    C21(17)   R23       7
    C22(19)   OBJ       -5
    C22(19)   R0        4
    C22(19)   R2        -1
    C22(19)   R3        17
    C22(19)   R4        13
    C22(19)   R5        17
    C22(19)   R6        16
    C22(19)   R8        2
    C22(19)   R9        5
    C22(19)   R10       18
    C22(19)   R11       2
    C22(19)   R12       5
    C22(19)   R13       15
    C22(19)   R15       7
    C22(19)   R16       7
    C22(19)   R18       14
    C22(19)   R19       -1
    C22(19)   R20       9
    C22(19)   R21       5
    C22(19)   R22       16
    C23(25)   OBJ       -1
    C23(25)   R0        8
    C23(25)   R1        1
    C23(25)   R2        15
    C23(25)   R3        4
    C23(25)   R4        2
    C23(25)   R5        19
    C23(25)   R6        19
    C23(25)   R7        7
    C23(25)   R8        14
    C23(25)   R9        10
    C23(25)   R10       10
    C23(25)   R11       11
    C23(25)   R12       11
    C23(25)   R13       3
    C23(25)   R14       9
    C23(25)   R15       11
    C23(25)   R16       2
    C23(25)   R17       10
    C23(25)   R18       11
    C23(25)   R19       11
    C23(25)   R20       16
    C23(25)   R21       12
    C23(25)   R22       17
    C23(25)   R23       8
    C23(25)   R24       9
    C24(23)   OBJ       -1
    C24(23)   R0        3
    C24(23)   R2        16
    C24(23)   R3        10
    C24(23)   R5        9
    C24(23)   R6        15
    C24(23)   R7        2
    C24(23)   R8        1
    C24(23)   R9        4
    C24(23)   R10       16
    C24(23)   R11       8
    C24(23)   R12       14
    C24(23)   R13       4
    C24(23)   R15       -1
    C24(23)   R16       18
    C24(23)   R17       9
    C24(23)   R18       8
    C24(23)   R19       13
    C24(23)   R20       -1
    C24(23)   R21       9
    C24(23)   R22       10
    C24(23)   R23       12
    C24(23)   R24       6
    C24(23)   R25       -1
    C25(1)    R2        1
    C26(1)    R3        1
    C27(1)    R4        1
    C28(1)    R5        1
    C29(1)    R6        1
    C30(1)    R7        1
    C31(1)    R8        1
    C32(1)    R9        1
    C33(1)    R10       1
    C34(1)    R11       1
    C35(1)    R12       1
    C36(1)    R13       1
    C37(1)    R14       1
    C38(1)    R15       1
    C39(1)    R16       1
    C40(1)    R17       1
    C41(1)    R18       1
    C42(1)    R19       1
    C43(1)    R20       1
    C44(1)    R21       1
    C45(1)    R22       1
    C46(1)    R23       1
    C47(1)    R24       1
    C48(1)    R25       1
    C49(1)    R26       1
RHS
    RHS1      R0        -1.1212121212121126e+01
    RHS1      R1        4.2515151515151544e+01
    RHS1      R2        54
    RHS1      R3        96
    RHS1      R4        71
    RHS1      R5        97
    RHS1      R6        81
    RHS1      R7        91
    RHS1      R8        57
    RHS1      R9        67
    RHS1      R10       50
    RHS1      R11       97
    RHS1      R12       71
    RHS1      R13       50
    RHS1      R14       68
    RHS1      R15       97
    RHS1      R16       65
    RHS1      R17       88
    RHS1      R18       50
    RHS1      R19       67
    RHS1      R20       98
    RHS1      R21       52
    RHS1      R22       79
    RHS1      R23       57
    RHS1      R24       73
    RHS1      R25       68
    RHS1      R26       3
BOUNDS
 UP BND1      I0(10)    1
 UP BND1      I1(10)    1
 UP BND1      I2(13)    1
 UP BND1      I3(12)    1
 UP BND1      I4(12)    1
 UP BND1      I5(9)     1
 UP BND1      I6(11)    1
 UP BND1      I7(11)    1
 UP BND1      I8(11)    1
 UP BND1      I9(10)    1
ENDATA
